sat
(model 
  (define-fun x3 () Int
    (- 19))
  (define-fun x2 () Int
    (- 9))
  (define-fun x1 () Int
    2)
)
sat
(model 
  (define-fun x3 () Int
    (- 11))
  (define-fun x2 () Int
    (- 1))
  (define-fun x1 () Int
    8)
)
